NAME : XML100_3116_18
DIMENSION : 101
NB_CLUSTERS : 10
CLUSTERING_ALG : KMedoids
CLUSTERING_PARAMS : k(9)
CLUSTERS
1 0
2 1 19 41 52 61 62 70 87 94
3 8 11 14 31 32 33 57 68 80 82
4 4 16 17 50 55
5 3 15 26 28 35 37 44 73 81 84 88 90 92 96 100
6 13 30 34 38 46 65 85 95
7 2 12 22 25 39 40 48 64 67 72 75 86 89
8 9 20 21 54 59 63 79 93 97
9 6 7 10 18 23 27 42 45 47 53 56 58 66 71 98 99
10 5 24 29 36 43 49 51 60 69 74 76 77 78 83 91
EOF